GLPSOL: GLPK LP/MIP Solver, v4.55
Parameter(s) specified in the command line:
 -m tmp.mod
Reading model section from tmp.mod...
Reading data section from tmp.mod...
620 lines were read
Generating obj...
Generating kirhoff...
Generating init_charge...
Generating batt_size...
Model has been successfully generated
GLPK Simplex Optimizer, v4.55
347 rows, 761 columns, 1538 non-zeros
Preprocessing...
316 rows, 714 columns, 1450 non-zeros
Scaling...
 A: min|aij| =  1.000e+00  max|aij| =  1.000e+00  ratio =  1.000e+00
Problem data seem to be well scaled
Constructing initial basis...
Size of triangular part is 279
      0: obj =   0.000000000e+00  infeas =  5.100e+01 (37)
*    90: obj =   4.000000000e+00  infeas =  0.000e+00 (20)
*   103: obj =   1.000000000e+00  infeas =  0.000e+00 (17)
OPTIMAL LP SOLUTION FOUND
Time used:   0.0 secs
Memory used: 1.6 Mb (1636798 bytes)
#OUTPUT:
1
-6 -6 0 0 1 0 1 -1 -6 0 -1 -1 -7 0 0 0 -6 -1 -3 -3 0 0 0 0 0 2 0 0 0 0 0 -1 0 0 0 0 0 0 -1 0 0 0 0 0 0 0 0 0 0 0 0 0 0 0 -1 -7 -3 0 -1 0 0 0 0 0 0 0 0 0 -4 0 0 0 0 0 0 0 1 0 0 0 0 1 0 0 0 0 0 0 0 0 -3 1 -1 0 0 6 1 0 0 -3 0 8 0 0 -1 0 0 0 -1 1 0 0 0 0 0 0 
-2 -2 -1 -1 -1 0 -1 0 -1 0 0 0 0 0 0 0 -1 0 0 0 0 0 0 0 0 0 0 -1 0 0 0 0 0 0 -1 0 0 0 0 0 0 0 0 0 0 0 0 0 0 0 0 0 -1 0 0 0 0 0 0 0 0 0 0 0 0 0 0 0 0 0 0 0 0 0 0 0 -1 0 0 0 0 0 0 0 0 0 0 0 0 0 -6 0 -1 0 1 0 0 0 0 0 0 0 0 0 1 0 0 0 0 0 0 0 0 0 0 0 
-3 0 0 0 0 0 0 0 0 0 0 0 0 0 0 0 0 0 0 0 0 0 0 0 0 0 0 0 0 0 0 0 0 0 0 0 0 0 0 0 0 0 0 0 0 0 0 0 0 0 0 0 0 0 0 0 0 0 0 0 0 0 0 0 0 0 0 0 0 0 0 0 0 0 -3 0 0 0 0 0 0 0 0 0 0 0 0 0 0 -3 0 0 0 0 0 0 0 0 0 0 0 0 0 0 0 0 0 0 0 0 0 0 0 0 0 0 
#OUTPUT END
Model has been successfully processed
